# Objective value = 1.9129545953090358e+03
x[0] 0
x[1] 0
x[2] 0
x[3] 1
x[4] 0
x[5] 1
x[6] 1
x[7] 1
x[8] 1
x[9] 1
x[10] 1
x[11] 1
x[12] 0
x[13] 0
x[14] 0
x[15] 1
x[16] 1
x[17] 0
x[18] 0
x[19] 1
x[20] 1
x[21] 0
x[22] 1
x[23] 1
x[24] 0
x[25] 1
x[26] 0
x[27] 1
x[28] 1
x[29] 1
x[30] 1
x[31] 1
x[32] 0
x[33] 1
x[34] 0
x[35] 0
x[36] 1
x[37] 1
x[38] 1
x[39] 1
x[40] 1
x[41] 0
x[42] 1
x[43] 1
x[44] 1
x[45] 0
x[46] 1
x[47] 0
x[48] 0
x[49] 1
x[50] 1
x[51] 1
x[52] 0
x[53] 0
x[54] 0
x[55] 0
x[56] 1
x[57] 0
x[58] 1
x[59] 1
x[60] 0
x[61] 0
x[62] 1
x[63] 1
x[64] 0
x[65] 0
x[66] 0
x[67] 1
x[68] 1
x[69] 1
x[70] 1
x[71] 1
x[72] 1
x[73] 1
x[74] 0
x[75] 0
x[76] 1
x[77] 1
x[78] 1
x[79] 1
x[80] 1
x[81] 1
x[82] 0
x[83] 0
x[84] 1
x[85] 0
x[86] 1
x[87] 0
x[88] 0
x[89] 0
x[90] 1
x[91] 1
x[92] 0
x[93] 1
x[94] 1
x[95] 1
x[96] 1
x[97] 1
x[98] 1
x[99] 1
x[100] 1
x[101] 0
x[102] 0
x[103] 1
x[104] 1
x[105] 0
x[106] 1
x[107] 1
x[108] 0
x[109] 1
x[110] 0
x[111] 0
x[112] 1
x[113] 1
x[114] 1
x[115] 1
x[116] 0
x[117] 0
x[118] 0
x[119] 1
x[120] 1
x[121] 1
x[122] 0
x[123] 0
x[124] 1
x[125] 1
x[126] 0
x[127] 1
x[128] 0
x[129] 0
x[130] 0
x[131] 0
x[132] 1
x[133] 1
x[134] 1
x[135] 1
x[136] 1
x[137] 0
x[138] 0
x[139] 0
x[140] 1
x[141] 0
x[142] 1
x[143] 0
x[144] 0
x[145] 1
x[146] 1
x[147] 0
x[148] 0
x[149] 0
x[150] 0
x[151] 1
x[152] 0
x[153] 0
x[154] 0
x[155] 0
x[156] 1
x[157] 0
x[158] 1
x[159] 1
x[160] 0
x[161] 0
x[162] 1
x[163] 0
x[164] 0
x[165] 0
x[166] 1
x[167] 1
x[168] 1
x[169] 1
x[170] 0
x[171] 0
x[172] 1
x[173] 0
x[174] 1
x[175] 1
x[176] 0
x[177] 1
x[178] 0
x[179] 0
x[180] 1
x[181] 0
x[182] 0
x[183] 1
x[184] 0
x[185] 0
x[186] 0
x[187] 0
x[188] 0
x[189] 1
x[190] 0
x[191] 0
x[192] 1
x[193] 0
x[194] 0
x[195] 0
x[196] 1
x[197] 1
x[198] 1
x[199] 0
x[200] 1
x[201] 0
x[202] 0
x[203] 0
x[204] 1
x[205] 1
x[206] 0
x[207] 1
x[208] 1
x[209] 1
x[210] 0
x[211] 0
x[212] 0
x[213] 1
x[214] 0
x[215] 1
x[216] 0
x[217] 1
x[218] 1
x[219] 0
x[220] 1
x[221] 1
x[222] 1
x[223] 1
x[224] 1
x[225] 0
x[226] 0
x[227] 0
x[228] 0
x[229] 1
x[230] 0
x[231] 1
x[232] 1
x[233] 1
x[234] 1
x[235] 0
x[236] 1
x[237] 1
x[238] 0
x[239] 0
x[240] 0
x[241] 0
x[242] 1
x[243] 1
x[244] 0
x[245] 1
x[246] 1
x[247] 0
x[248] 0
x[249] 0
x[250] 1
x[251] 0
x[252] 1
x[253] 1
x[254] 1
x[255] 0
x[256] 1
x[257] 1
x[258] 1
x[259] 0
x[260] 0
x[261] 1
x[262] 0
x[263] 1
x[264] 0
x[265] 1
x[266] 1
x[267] 1
x[268] 0
x[269] 1
x[270] 1
x[271] 1
x[272] 1
x[273] 1
x[274] 0
x[275] 0
x[276] 0
x[277] 1
x[278] 0
x[279] 1
x[280] 1
x[281] 0
x[282] 1
x[283] 0
x[284] 1
x[285] 0
x[286] 1
x[287] 1
x[288] 1
x[289] 0
x[290] 1
x[291] 1
x[292] 1
x[293] 1
x[294] 0
x[295] 0
x[296] 0
x[297] 1
x[298] 1
x[299] 0
x[300] 1
x[301] 1
x[302] 0
x[303] 1
x[304] 0
x[305] 1
x[306] 1
x[307] 1
x[308] 1
x[309] 1
x[310] 0
x[311] 1
x[312] 1
x[313] 1
x[314] 0
x[315] 1
x[316] 1
x[317] 0
x[318] 0
x[319] 1
x[320] 1
x[321] 1
x[322] 1
x[323] 1
x[324] 1
x[325] 1
x[326] 1
x[327] 1
x[328] 0
x[329] 0
x[330] 1
x[331] 0
x[332] 0
x[333] 0
x[334] 0
x[335] 1
x[336] 0
x[337] 1
x[338] 1
x[339] 0
x[340] 1
x[341] 0
x[342] 1
x[343] 1
x[344] 1
x[345] 0
x[346] 1
x[347] 1
x[348] 0
x[349] 1
x[350] 0
x[351] 0
x[352] 1
x[353] 0
x[354] 0
x[355] 1
x[356] 1
x[357] 1
x[358] 0
x[359] 0
x[360] 1
x[361] 0
x[362] 1
x[363] 0
x[364] 1
x[365] 0
x[366] 1
x[367] 1
x[368] 0
x[369] 1
x[370] 0
x[371] 0
x[372] 1
x[373] 0
x[374] 1
x[375] 0
x[376] 1
x[377] 1
x[378] 0
x[379] 0
x[380] 0
x[381] 0
x[382] 1
x[383] 0
x[384] 0
x[385] 1
x[386] 1
x[387] 0
x[388] 1
x[389] 0
x[390] 1
x[391] 1
x[392] 1
x[393] 0
x[394] 1
x[395] 1
x[396] 0
x[397] 0
x[398] 0
x[399] 0
x[400] 0
x[401] 0
x[402] 0
x[403] 1
x[404] 1
x[405] 1
x[406] 0
x[407] 0
x[408] 1
x[409] 1
x[410] 1
x[411] 1
x[412] 0
x[413] 1
x[414] 1
x[415] 1
x[416] 1
x[417] 1
x[418] 1
x[419] 0
x[420] 0
x[421] 1
x[422] 1
x[423] 0
x[424] 1
x[425] 0
x[426] 0
x[427] 1
x[428] 1
x[429] 0
x[430] 0
x[431] 0
x[432] 1
x[433] 0
x[434] 0
x[435] 0
x[436] 1
x[437] 0
x[438] 1
x[439] 0
x[440] 0
x[441] 1
x[442] 0
x[443] 1
x[444] 0
x[445] 0
x[446] 0
x[447] 1
x[448] 0
x[449] 0
x[450] 1
x[451] 1
x[452] 1
x[453] 1
x[454] 0
x[455] 1
x[456] 1
x[457] 1
x[458] 1
x[459] 1
x[460] 0
x[461] 1
x[462] 1
x[463] 0
x[464] 0
x[465] 1
x[466] 0
x[467] 1
x[468] 1
x[469] 0
x[470] 1
x[471] 1
x[472] 1
x[473] 0
x[474] 1
x[475] 0
x[476] 0
x[477] 1
x[478] 1
x[479] 1
x[480] 0
x[481] 1
x[482] 1
x[483] 1
x[484] 0
x[485] 0
x[486] 1
x[487] 1
x[488] 1
x[489] 1
x[490] 1
x[491] 0
x[492] 0
x[493] 1
x[494] 0
x[495] 1
x[496] 0
x[497] 1
x[498] 0
x[499] 0
x[500] 0
x[501] 1
x[502] 1
x[503] 1
x[504] 0
x[505] 0
x[506] 1
x[507] 1
x[508] 1
x[509] 1
x[510] 1
x[511] 0
x[512] 1
x[513] 1
x[514] 0
x[515] 1
x[516] 1
x[517] 1
x[518] 1
x[519] 1
x[520] 1
x[521] 0
x[522] 0
x[523] 1
x[524] 1
x[525] 1
x[526] 0
x[527] 0
x[528] 1
x[529] 1
x[530] 0
x[531] 0
x[532] 1
x[533] 1
x[534] 1
x[535] 1
x[536] 1
x[537] 1
x[538] 1
x[539] 1
x[540] 0
x[541] 0
x[542] 0
x[543] 1
x[544] 0
x[545] 1
x[546] 1
x[547] 0
x[548] 1
x[549] 0
x[550] 1
x[551] 1
x[552] 1
x[553] 0
x[554] 0
x[555] 1
x[556] 1
x[557] 1
x[558] 1
x[559] 0
x[560] 1
x[561] 0
x[562] 1
x[563] 1
x[564] 1
x[565] 1
x[566] 1
x[567] 1
x[568] 1
x[569] 1
x[570] 1
x[571] 1
x[572] 0
x[573] 1
x[574] 1
x[575] 1
x[576] 0
x[577] 1
x[578] 1
x[579] 1
x[580] 0
x[581] 1
x[582] 1
x[583] 1
x[584] 1
x[585] 1
x[586] 0
x[587] 0
x[588] 1
x[589] 0
x[590] 1
x[591] 0
x[592] 0
x[593] 1
x[594] 1
x[595] 1
x[596] 0
x[597] 0
x[598] 1
x[599] 0
x[600] 1
x[601] 0
x[602] 0
x[603] 1
x[604] 1
x[605] 1
x[606] 1
x[607] 0
x[608] 0
x[609] 0
x[610] 1
x[611] 0
x[612] 1
x[613] 0
x[614] 1
x[615] 1
x[616] 1
x[617] 0
x[618] 1
x[619] 0
x[620] 0
x[621] 1
x[622] 0
x[623] 1
x[624] 1
x[625] 1
x[626] 1
x[627] 1
x[628] 0
x[629] 1
x[630] 1
x[631] 0
x[632] 1
x[633] 0
x[634] 0
x[635] 0
x[636] 0
x[637] 0
x[638] 0
x[639] 0
x[640] 1
x[641] 0
x[642] 1
x[643] 1
x[644] 1
x[645] 0
x[646] 1
x[647] 0
x[648] 1
x[649] 1
x[650] 1
x[651] 0
x[652] 1
x[653] 1
x[654] 1
x[655] 1
x[656] 0
x[657] 0
x[658] 0
x[659] 0
x[660] 0
x[661] 1
x[662] 0
x[663] 1
x[664] 0
x[665] 0
x[666] 1
x[667] 0
x[668] 1
x[669] 0
x[670] 0
x[671] 1
x[672] 1
x[673] 0
x[674] 1
x[675] 1
x[676] 1
x[677] 1
x[678] 0
x[679] 1
x[680] 1
x[681] 0
x[682] 0
x[683] 0
x[684] 0
x[685] 1
x[686] 0
x[687] 1
x[688] 1
x[689] 1
x[690] 0
x[691] 1
x[692] 1
x[693] 0
x[694] 1
x[695] 1
x[696] 0
x[697] 0
x[698] 0
x[699] 1
x[700] 1
x[701] 1
x[702] 1
x[703] 0
x[704] 0
x[705] 1
x[706] 1
x[707] 1
x[708] 0
x[709] 1
x[710] 1
x[711] 1
x[712] 0
x[713] 1
x[714] 0
x[715] 0
x[716] 0
x[717] 0
x[718] 0
x[719] 1
x[720] 1
x[721] 0
x[722] 1
x[723] 0
x[724] 1
x[725] 0
x[726] 0
x[727] 0
x[728] 0
x[729] 0
x[730] 1
x[731] 1
x[732] 1
x[733] 0
x[734] 1
x[735] 1
x[736] 1
x[737] 1
x[738] 0
x[739] 0
x[740] 1
x[741] 1
x[742] 0
x[743] 1
x[744] 1
x[745] 0
x[746] 1
x[747] 1
x[748] 0
x[749] 1
x[750] 1
x[751] 1
x[752] 1
x[753] 0
x[754] 0
x[755] 1
x[756] 1
x[757] 1
x[758] 0
x[759] 1
x[760] 1
x[761] 0
x[762] 0
x[763] 1
x[764] 1
x[765] 1
x[766] 1
x[767] 1
x[768] 0
x[769] 0
x[770] 0
x[771] 0
x[772] 0
x[773] 0
x[774] 0
x[775] 1
x[776] 0
x[777] 0
x[778] 1
x[779] 1
x[780] 1
x[781] 0
x[782] 0
x[783] 1
x[784] 1
x[785] 0
x[786] 0
x[787] 0
x[788] 0
x[789] 1
x[790] 1
x[791] 0
x[792] 0
x[793] 1
x[794] 1
x[795] 0
x[796] 0
x[797] 1
x[798] 1
x[799] 0
x[800] 1
x[801] 1
x[802] 0
x[803] 0
x[804] 0
x[805] 1
x[806] 1
x[807] 0
x[808] 0
x[809] 0
x[810] 1
x[811] 1
x[812] 1
x[813] 0
x[814] 1
x[815] 1
x[816] 1
x[817] 0
x[818] 1
x[819] 1
x[820] 0
x[821] 0
x[822] 0
x[823] 0
x[824] 1
x[825] 1
x[826] 0
x[827] 1
x[828] 0
x[829] 1
x[830] 0
x[831] 0
x[832] 0
x[833] 1
x[834] 1
x[835] 1
x[836] 0
x[837] 1
x[838] 0
x[839] 0
x[840] 0
x[841] 1
x[842] 0
x[843] 0
x[844] 0
x[845] 1
x[846] 0
x[847] 0
x[848] 1
x[849] 0
x[850] 1
x[851] 1
x[852] 1
x[853] 1
x[854] 1
x[855] 0
x[856] 1
x[857] 1
x[858] 1
x[859] 1
x[860] 0
x[861] 1
x[862] 1
x[863] 0
x[864] 0
x[865] 1
x[866] 1
x[867] 0
x[868] 1
x[869] 0
x[870] 0
x[871] 1
x[872] 1
x[873] 0
x[874] 0
x[875] 0
x[876] 0
x[877] 0
x[878] 0
x[879] 1
x[880] 1
x[881] 0
x[882] 1
x[883] 1
x[884] 0
x[885] 1
x[886] 0
x[887] 1
x[888] 0
x[889] 0
x[890] 1
x[891] 0
x[892] 1
x[893] 0
x[894] 1
x[895] 0
x[896] 0
x[897] 1
x[898] 1
x[899] 1
x[900] 0
x[901] 0
x[902] 0
x[903] 1
x[904] 0
x[905] 1
x[906] 0
x[907] 1
x[908] 0
x[909] 1
x[910] 0
x[911] 0
x[912] 1
x[913] 1
x[914] 0
x[915] 0
x[916] 0
x[917] 1
x[918] 1
x[919] 1
x[920] 1
x[921] 0
x[922] 1
x[923] 1
x[924] 1
x[925] 0
x[926] 1
x[927] 1
x[928] 1
x[929] 1
x[930] 0
x[931] 1
x[932] 0
x[933] 0
x[934] 0
x[935] 0
x[936] 1
x[937] 0
x[938] 0
x[939] 0
x[940] 0
x[941] 0
x[942] 1
x[943] 1
x[944] 0
x[945] 0
x[946] 1
x[947] 0
x[948] 0
x[949] 1
x[950] 0
x[951] 1
x[952] 1
x[953] 0
x[954] 1
x[955] 0
x[956] 1
x[957] 1
x[958] 1
x[959] 1
x[960] 1
x[961] 0
x[962] 0
x[963] 1
x[964] 1
x[965] 1
x[966] 1
x[967] 0
x[968] 1
x[969] 1
x[970] 1
x[971] 1
x[972] 1
x[973] 0
x[974] 1
x[975] 0
x[976] 1
x[977] 1
x[978] 1
x[979] 0
x[980] 1
x[981] 1
x[982] 1
x[983] 1
x[984] 0
x[985] 1
x[986] 1
x[987] 0
x[988] 1
x[989] 0
x[990] 0
x[991] 0
x[992] 0
x[993] 1
x[994] 1
x[995] 0
x[996] 0
x[997] 1
x[998] 0
x[999] 1
